NAME: I19260-n32-k4
COMMENT : (Fake et al, No of trucks: 4, Optimal value: )
TYPE : CVRP
DIMENSION : 32
EDGE_WEIGHT_TYPE : EUC_2D
CAPACITY : 17
NODE_COORD_SECTION
1 5 175
2 108 268
3 356 73
4 655 778
5 457 241
6 393 571
7 597 173
8 624 776
9 989 40
10 142 916
11 929 723
12 919 675
13 991 150
14 36 658
15 662 645
16 617 255
17 32 117
18 474 668
19 67 886
20 87 687
21 219 574
22 881 349
23 244 443
24 983 395
25 1000 765
26 655 75
27 780 952
28 409 998
29 816 863
30 852 570
31 933 272
32 211 437
DEMAND_SECTION
1 0
2 2
3 1
4 2
5 2
6 1
7 2
8 2
9 2
10 1
11 2
12 2
13 1
14 2
15 1
16 2
17 1
18 2
19 1
20 2
21 2
22 2
23 2
24 2
25 2
26 2
27 2
28 1
29 2
30 2
31 2
32 2
DEPOT_SECTION
 1
 -1
 EOF 